src/falcon_planner/exploration_utils/resource/coverage_path_1.tsp
NAME : coverage_path
TYPE : ATSP
DIMENSION : 5
EDGE_WEIGHT_TYPE : EXPLICIT
EDGE_WEIGHT_FORMAT : FULL_MATRIX
EDGE_WEIGHT_SECTION
0 142 2282 2564 4365 
0 0 142 100000 1658 
0 142 0 100000 100000 
0 100000 100000 0 140000 
0 1658 100000 140000 0 
EOF