src/falcon_planner/exploration_utils/resource/coverage_path_1.txt
NAME : coverage_path.30445.tour
COMMENT : Length = 30445
COMMENT : Found by LKH [Keld Helsgaun] Tue Jul 29 16:40:38 2025
TYPE : TOUR
DIMENSION : 80
TOUR_SECTION
1
2
80
74
66
67
60
59
45
44
51
52
43
42
37
36
29
30
31
24
25
18
12
11
17
23
22
16
10
6
5
9
8
4
3
7
13
19
26
27
20
14
15
21
28
34
35
41
49
50
58
57
56
55
48
40
39
33
32
38
46
47
54
53
61
68
75
76
77
70
69
62
63
64
71
78
79
73
72
65
-1
EOF
